352920.0
3670
2 4 5 6 7 8 9 10 11 13 15 17 19 20 21 22 24 25 27 28 29 30 31 32 34 35 36 37 39 40 41 42 43 45 46 47 48 49 50 51 52 53 54 56 57 59 62 63 64 65 66 67 69 70 71 72 73 74 76 77 78 79 80 83 84 85 86 87 88 92 93 94 95 97 98 99 100 101 103 105 106 107 108 109 110 111 112 113 114 115 116 117 118 120 121 123 125 126 127 128 129 131 132 133 134 136 138 139 140 143 146 147 148 149 150 152 154 155 156 157 158 159 160 161 162 163 164 166 167 169 170 173 174 175 176 179 180 181 183 184 185 186 188 189 190 191 192 193 195 197 198 